(set-logic HORN)
(declare-fun state (Int (Array Int Int) (Array Int Int) (Array Int Int) (Array Int Int) Int Int (Array Int Int) (Array Int Int) Int Int Int Int Int Int Int Int Int Int Int Int Int Int Int Int Int Int Int Int Int Bool Bool Bool Bool Bool (Array Int Int)) Bool)
(assert (forall ((|hhv_ULTIMATE.start_L24_0_Int| Int) (|hbv_ULTIMATE.start_L20-4_1_Array_Int_Int| (Array Int Int)) (|hhv_ULTIMATE.start_L24_2_Array_Int_Int| (Array Int Int)) (|hhv_ULTIMATE.start_L24_3_Array_Int_Array_Int_Int| (Array Int Int)) (|hhv_ULTIMATE.start_L24_4_Array_Int_Array_Int_Int| (Array Int Int)) (|hhv_ULTIMATE.start_L24_5_Int| Int) (|hhv_ULTIMATE.start_L24_6_Int| Int) (|hhv_ULTIMATE.start_L24_7_Array_Int_Int| (Array Int Int)) (|hhv_ULTIMATE.start_L24_8_Array_Int_Int| (Array Int Int)) (|hhv_ULTIMATE.start_L24_9_Int| Int) (|hhv_ULTIMATE.start_L24_10_Int| Int) (|hhv_ULTIMATE.start_L24_11_Int| Int) (|hbv_ULTIMATE.start_L20-4_12_Int| Int) (|hhv_ULTIMATE.start_L24_13_Int| Int) (|hhv_ULTIMATE.start_L24_14_Int| Int) (|hhv_ULTIMATE.start_L24_15_Int| Int) (|hhv_ULTIMATE.start_L24_16_Int| Int) (|hhv_ULTIMATE.start_L24_17_Int| Int) (|hhv_ULTIMATE.start_L24_18_Int| Int) (|hhv_ULTIMATE.start_L24_19_Int| Int) (|hbv_ULTIMATE.start_L20-4_20_Int| Int) (|hhv_ULTIMATE.start_L24_21_Int| Int) (|hhv_ULTIMATE.start_L24_22_Int| Int) (|hbv_ULTIMATE.start_L20-4_23_Int| Int) (|hhv_ULTIMATE.start_L24_24_Int| Int) (|hbv_ULTIMATE.start_L20-4_25_Int| Int) (|hbv_ULTIMATE.start_L20-4_26_Int| Int) (|hhv_ULTIMATE.start_L24_27_Int| Int) (|hhv_ULTIMATE.start_L24_28_Int| Int) (|hhv_ULTIMATE.start_L24_29_Int| Int) (|hhv_ULTIMATE.start_L24_30_Bool| Bool) (|.loc.5| Bool) (|.loc.6| Bool) (|.loc.7| Bool) (|.loc.8| Bool) (|hbv_ULTIMATE.start_L-1_1_Array_Int_Int| (Array Int Int)) (|.x.709| Int) (|.x.707| (Array Int Int)) (|.x.705| Int) (|.x.703| (Array Int Int)) (|.x.699| Int) (|.x.701| (Array Int Int)) (|.loc.9| Bool) (|.loc.10| Bool) (|.x.718| Int) (|.x.725| Int) (|.x.729| Bool) (|.x.700| (Array Int Int)) (|.x.712| Int) (|.x.723| Int) (|.x.726| Int) (|.x.727| Int) (|.x.720| Int) (|.x.722| Int) (|.x.702| (Array Int Int)) (|.x.719| Int) (|.x.717| Int) (|.x.711| Int) (|.x.724| Int) (|.x.721| Int) (|.loc.12| Bool) (|.loc.11| Bool) (|.x.715| Int) (|.x.714| Int) (|.x.728| Int) (|.x.716| Int) (|.x.710| Int) (|.x.713| Int) (|.x.708| Int) (|.x.704| Int) (|.x.706| (Array Int Int)) (|.xtv.1| (Array Int Int))) (=> (and (and (and (and .loc.5 .loc.6) (not .loc.7)) (not .loc.8)) (and (and (and (and (and (= hbv_ULTIMATE.start_L20-4_1_Array_Int_Int hhv_ULTIMATE.start_L24_2_Array_Int_Int) (= hhv_ULTIMATE.start_L24_7_Array_Int_Int hhv_ULTIMATE.start_L24_8_Array_Int_Int)) (= hhv_ULTIMATE.start_L24_5_Int hhv_ULTIMATE.start_L24_6_Int)) (= hhv_ULTIMATE.start_L24_9_Int hhv_ULTIMATE.start_L24_10_Int)) (= hhv_ULTIMATE.start_L24_3_Array_Int_Array_Int_Int hhv_ULTIMATE.start_L24_4_Array_Int_Array_Int_Int)) (not hhv_ULTIMATE.start_L24_30_Bool))) (state |hhv_ULTIMATE.start_L24_0_Int| |hbv_ULTIMATE.start_L20-4_1_Array_Int_Int| |hhv_ULTIMATE.start_L24_2_Array_Int_Int| |hhv_ULTIMATE.start_L24_3_Array_Int_Array_Int_Int| |hhv_ULTIMATE.start_L24_4_Array_Int_Array_Int_Int| |hhv_ULTIMATE.start_L24_5_Int| |hhv_ULTIMATE.start_L24_6_Int| |hhv_ULTIMATE.start_L24_7_Array_Int_Int| |hhv_ULTIMATE.start_L24_8_Array_Int_Int| |hhv_ULTIMATE.start_L24_9_Int| |hhv_ULTIMATE.start_L24_10_Int| |hhv_ULTIMATE.start_L24_11_Int| |hbv_ULTIMATE.start_L20-4_12_Int| |hhv_ULTIMATE.start_L24_13_Int| |hhv_ULTIMATE.start_L24_14_Int| |hhv_ULTIMATE.start_L24_15_Int| |hhv_ULTIMATE.start_L24_16_Int| |hhv_ULTIMATE.start_L24_17_Int| |hhv_ULTIMATE.start_L24_18_Int| |hhv_ULTIMATE.start_L24_19_Int| |hbv_ULTIMATE.start_L20-4_20_Int| |hhv_ULTIMATE.start_L24_21_Int| |hhv_ULTIMATE.start_L24_22_Int| |hbv_ULTIMATE.start_L20-4_23_Int| |hhv_ULTIMATE.start_L24_24_Int| |hbv_ULTIMATE.start_L20-4_25_Int| |hbv_ULTIMATE.start_L20-4_26_Int| |hhv_ULTIMATE.start_L24_27_Int| |hhv_ULTIMATE.start_L24_28_Int| |hhv_ULTIMATE.start_L24_29_Int| |hhv_ULTIMATE.start_L24_30_Bool| |.loc.5| |.loc.6| |.loc.7| |.loc.8| |hbv_ULTIMATE.start_L-1_1_Array_Int_Int|))))
(assert (forall ((|hhv_ULTIMATE.start_L24_0_Int| Int) (|hbv_ULTIMATE.start_L20-4_1_Array_Int_Int| (Array Int Int)) (|hhv_ULTIMATE.start_L24_2_Array_Int_Int| (Array Int Int)) (|hhv_ULTIMATE.start_L24_3_Array_Int_Array_Int_Int| (Array Int Int)) (|hhv_ULTIMATE.start_L24_4_Array_Int_Array_Int_Int| (Array Int Int)) (|hhv_ULTIMATE.start_L24_5_Int| Int) (|hhv_ULTIMATE.start_L24_6_Int| Int) (|hhv_ULTIMATE.start_L24_7_Array_Int_Int| (Array Int Int)) (|hhv_ULTIMATE.start_L24_8_Array_Int_Int| (Array Int Int)) (|hhv_ULTIMATE.start_L24_9_Int| Int) (|hhv_ULTIMATE.start_L24_10_Int| Int) (|hhv_ULTIMATE.start_L24_11_Int| Int) (|hbv_ULTIMATE.start_L20-4_12_Int| Int) (|hhv_ULTIMATE.start_L24_13_Int| Int) (|hhv_ULTIMATE.start_L24_14_Int| Int) (|hhv_ULTIMATE.start_L24_15_Int| Int) (|hhv_ULTIMATE.start_L24_16_Int| Int) (|hhv_ULTIMATE.start_L24_17_Int| Int) (|hhv_ULTIMATE.start_L24_18_Int| Int) (|hhv_ULTIMATE.start_L24_19_Int| Int) (|hbv_ULTIMATE.start_L20-4_20_Int| Int) (|hhv_ULTIMATE.start_L24_21_Int| Int) (|hhv_ULTIMATE.start_L24_22_Int| Int) (|hbv_ULTIMATE.start_L20-4_23_Int| Int) (|hhv_ULTIMATE.start_L24_24_Int| Int) (|hbv_ULTIMATE.start_L20-4_25_Int| Int) (|hbv_ULTIMATE.start_L20-4_26_Int| Int) (|hhv_ULTIMATE.start_L24_27_Int| Int) (|hhv_ULTIMATE.start_L24_28_Int| Int) (|hhv_ULTIMATE.start_L24_29_Int| Int) (|hhv_ULTIMATE.start_L24_30_Bool| Bool) (|.loc.5| Bool) (|.loc.6| Bool) (|.loc.7| Bool) (|.loc.8| Bool) (|hbv_ULTIMATE.start_L-1_1_Array_Int_Int| (Array Int Int)) (|.x.709| Int) (|.x.707| (Array Int Int)) (|.x.705| Int) (|.x.703| (Array Int Int)) (|.x.699| Int) (|.x.701| (Array Int Int)) (|.loc.9| Bool) (|.loc.10| Bool) (|.x.718| Int) (|.x.725| Int) (|.x.729| Bool) (|.x.700| (Array Int Int)) (|.x.712| Int) (|.x.723| Int) (|.x.726| Int) (|.x.727| Int) (|.x.720| Int) (|.x.722| Int) (|.x.702| (Array Int Int)) (|.x.719| Int) (|.x.717| Int) (|.x.711| Int) (|.x.724| Int) (|.x.721| Int) (|.loc.12| Bool) (|.loc.11| Bool) (|.x.715| Int) (|.x.714| Int) (|.x.728| Int) (|.x.716| Int) (|.x.710| Int) (|.x.713| Int) (|.x.708| Int) (|.x.704| Int) (|.x.706| (Array Int Int)) (|.xtv.1| (Array Int Int))) (=> (and (state |hhv_ULTIMATE.start_L24_0_Int| |hbv_ULTIMATE.start_L20-4_1_Array_Int_Int| |hhv_ULTIMATE.start_L24_2_Array_Int_Int| |hhv_ULTIMATE.start_L24_3_Array_Int_Array_Int_Int| |hhv_ULTIMATE.start_L24_4_Array_Int_Array_Int_Int| |hhv_ULTIMATE.start_L24_5_Int| |hhv_ULTIMATE.start_L24_6_Int| |hhv_ULTIMATE.start_L24_7_Array_Int_Int| |hhv_ULTIMATE.start_L24_8_Array_Int_Int| |hhv_ULTIMATE.start_L24_9_Int| |hhv_ULTIMATE.start_L24_10_Int| |hhv_ULTIMATE.start_L24_11_Int| |hbv_ULTIMATE.start_L20-4_12_Int| |hhv_ULTIMATE.start_L24_13_Int| |hhv_ULTIMATE.start_L24_14_Int| |hhv_ULTIMATE.start_L24_15_Int| |hhv_ULTIMATE.start_L24_16_Int| |hhv_ULTIMATE.start_L24_17_Int| |hhv_ULTIMATE.start_L24_18_Int| |hhv_ULTIMATE.start_L24_19_Int| |hbv_ULTIMATE.start_L20-4_20_Int| |hhv_ULTIMATE.start_L24_21_Int| |hhv_ULTIMATE.start_L24_22_Int| |hbv_ULTIMATE.start_L20-4_23_Int| |hhv_ULTIMATE.start_L24_24_Int| |hbv_ULTIMATE.start_L20-4_25_Int| |hbv_ULTIMATE.start_L20-4_26_Int| |hhv_ULTIMATE.start_L24_27_Int| |hhv_ULTIMATE.start_L24_28_Int| |hhv_ULTIMATE.start_L24_29_Int| |hhv_ULTIMATE.start_L24_30_Bool| |.loc.5| |.loc.6| |.loc.7| |.loc.8| |hbv_ULTIMATE.start_L-1_1_Array_Int_Int|) (let ((.def_47 (not .loc.7))) (let ((.def_49 (not .loc.8))) (let ((.def_81 (not .loc.9))) (let ((.def_98 (= hhv_ULTIMATE.start_L24_13_Int .x.712))) (let ((.def_101 (= hhv_ULTIMATE.start_L24_24_Int .x.723))) (let ((.def_104 (= hhv_ULTIMATE.start_L24_27_Int .x.726))) (let ((.def_107 (= hhv_ULTIMATE.start_L24_28_Int .x.727))) (let ((.def_109 (= hhv_ULTIMATE.start_L24_30_Bool .x.729))) (let ((.def_131 (= .x.720 .x.717))) (let ((.def_140 (and (and (and (= .x.727 (select (select .x.702 .x.719) (+ (* 4 .x.720) .x.722))) (and (= .x.726 (ite (= .x.723 .x.727) 1 0)) (= .x.712 .x.726))) (not .def_131)) (= .x.723 (select (select .x.702 .x.724) (+ (* 4 .x.720) .x.711)))))) (let ((.def_142 (= .x.712 0))) (let ((.def_144 (not .loc.5))) (let ((.def_148 (= hbv_ULTIMATE.start_L20-4_26_Int .x.725))) (let ((.def_150 (= hbv_ULTIMATE.start_L20-4_25_Int .x.724))) (let ((.def_152 (= hbv_ULTIMATE.start_L20-4_23_Int .x.722))) (let ((.def_154 (= hbv_ULTIMATE.start_L20-4_20_Int .x.719))) (let ((.def_156 (= hhv_ULTIMATE.start_L24_19_Int .x.718))) (let ((.def_158 (= hbv_ULTIMATE.start_L20-4_12_Int .x.711))) (let ((.def_160 (= hbv_ULTIMATE.start_L20-4_1_Array_Int_Int .x.700))) (let ((.def_163 (<= 200000 hhv_ULTIMATE.start_L24_21_Int))) (let ((.def_165 (or hhv_ULTIMATE.start_L24_30_Bool (not .def_163)))) (let ((.def_169 (and hhv_ULTIMATE.start_L24_30_Bool .def_98))) (let ((.def_183 (not .loc.10))) (let ((.def_190 (and .def_109 (and .def_107 (and .def_104 (and .def_98 .def_101)))))) (let ((.def_204 (= hhv_ULTIMATE.start_L24_22_Int .x.721))) (let ((.def_205 (= hhv_ULTIMATE.start_L24_21_Int .x.720))) (let ((.def_244 (not .loc.12))) (let ((.def_247 (not .loc.6))) (let ((.def_248 (= hhv_ULTIMATE.start_L24_18_Int .x.717))) (let ((.def_285 (and .def_109 (and .def_107 (and .def_104 (and .def_101 (and .def_204 (and .def_205 (and .def_98 .def_248))))))))) (let ((.def_348 (not .loc.11))) (let ((.def_373 (and .loc.6 .def_285))) (let ((.def_388 (<= 200000 hhv_ULTIMATE.start_L24_16_Int))) (let ((.def_389 (or hhv_ULTIMATE.start_L24_30_Bool .def_388))) (let ((.def_393 (= hhv_ULTIMATE.start_L24_16_Int .x.715))) (let ((.def_395 (= hhv_ULTIMATE.start_L24_15_Int .x.714))) (let ((.def_400 (= (+ hhv_ULTIMATE.start_L24_16_Int (* (- 1) .x.715)) (- 1)))) (let ((.def_418 (= .x.715 0))) (let ((.def_420 (and .def_98 .def_395))) (let ((.def_426 (and .def_107 (and .def_104 (and .def_101 (and .def_204 (and .def_205 (and .def_248 .def_420)))))))) (let ((.def_446 (= hhv_ULTIMATE.start_L24_29_Int .x.728))) (let ((.def_447 (= hhv_ULTIMATE.start_L24_3_Array_Int_Array_Int_Int .x.702))) (let ((.def_450 (= .x.717 .x.715))) (let ((.def_487 (not .def_388))) (let ((.def_488 (or hhv_ULTIMATE.start_L24_30_Bool .def_487))) (let ((.def_492 (and .def_98 .def_447))) (let ((.def_502 (and .def_109 (and .def_446 (and .def_107 (and .def_104 (and .def_101 (and .def_204 (and .def_205 (and .def_248 (and .def_393 (and .def_395 .def_492)))))))))))) (let ((.def_581 (store hhv_ULTIMATE.start_L24_3_Array_Int_Array_Int_Int hbv_ULTIMATE.start_L20-4_20_Int (store (select hhv_ULTIMATE.start_L24_3_Array_Int_Array_Int_Int hbv_ULTIMATE.start_L20-4_20_Int) (+ (* 4 hhv_ULTIMATE.start_L24_16_Int) hbv_ULTIMATE.start_L20-4_23_Int) hhv_ULTIMATE.start_L24_11_Int)))) (let ((.def_645 (store hbv_ULTIMATE.start_L-1_1_Array_Int_Int .x.719 1))) (and (and (= hhv_ULTIMATE.start_L24_10_Int .x.709) (and (= hhv_ULTIMATE.start_L24_8_Array_Int_Int .x.707) (and (= hhv_ULTIMATE.start_L24_6_Int .x.705) (and (= hhv_ULTIMATE.start_L24_4_Array_Int_Array_Int_Int .x.703) (and (= hhv_ULTIMATE.start_L24_0_Int .x.699) (= hhv_ULTIMATE.start_L24_2_Array_Int_Int .x.701)))))) (or (and (or (and (or (or (or (or (and (or (or (and (or (or (and (or (or (or (or (and (or (and (or (and (or (or (and (and .def_81 .loc.10) (or (and .loc.5 (and (or (= .x.718 .x.725) .x.729) (and (and (and (and (and (or hhv_ULTIMATE.start_L24_30_Bool (and (= (store (store hbv_ULTIMATE.start_L20-4_1_Array_Int_Int hbv_ULTIMATE.start_L20-4_20_Int 0) hbv_ULTIMATE.start_L20-4_25_Int 0) .x.700) (= .x.725 0))) .def_98) .def_101) .def_104) .def_107) .def_109))) (and (and (and (and (and (and (and (and (and (or hhv_ULTIMATE.start_L24_30_Bool .def_140) (and (or hhv_ULTIMATE.start_L24_30_Bool .def_142) (and .x.729 .def_144))) .def_148) .def_150) .def_152) .def_154) .def_156) .def_158) .def_160) .def_165))) (and (and .def_160 (and .def_158 (and .def_156 (and .def_154 (and .def_152 (and .def_150 (and .def_148 (and .def_144 (and .loc.9 (and .def_109 (and .def_107 (and .def_104 (and .def_101 .def_169))))))))))))) .def_183)) (and (or hhv_ULTIMATE.start_L24_30_Bool .def_163) (and .def_183 (and .def_160 (and .def_158 (and .def_156 (and .def_154 (and .def_152 (and .def_150 (and .def_148 (and .def_144 (and .loc.9 .def_190)))))))))))) (and .loc.8 (and .def_204 .def_205))) (and (or hhv_ULTIMATE.start_L24_30_Bool (= (+ hhv_ULTIMATE.start_L24_21_Int (* (- 1) .x.720)) (- 1))) (and .def_49 (and .def_183 (and .def_160 (and .def_158 (and .def_156 (and .def_154 (and .def_152 (and .def_150 (and .def_148 (and .def_81 (and .loc.5 .def_190))))))))))))) .loc.12) (and (and .def_49 (and .def_183 (and .def_160 (and .def_158 (and .def_156 (and .def_154 (and .def_152 (and .def_150 (and .def_148 (and .def_144 (and .loc.9 (and .def_109 (and .def_104 (and .def_204 (and .def_98 .def_205))))))))))))))) .def_244)) (and .def_47 (and .def_247 .def_248))) (and (or hhv_ULTIMATE.start_L24_30_Bool (and (= .x.720 0) (= .x.717 150001))) (and .def_49 (and .def_183 (and .def_160 (and .def_158 (and .def_156 (and .def_154 (and .def_152 (and .def_150 (and .def_148 (and .def_81 (and .loc.12 (and .loc.7 (and .loc.6 (and .loc.5 (and .def_109 (and .def_107 (and .def_104 (and .def_101 (and .def_98 .def_204))))))))))))))))))))) (and (or .x.729 .def_131) (and .def_244 (and .def_183 (and .def_165 (and .def_160 (and .def_158 (and .def_156 (and .def_154 (and .def_152 (and .def_150 (and .def_148 (and .def_144 (and .loc.9 (and .def_47 (and .def_247 (and .loc.8 .def_285))))))))))))))))) (and (or .x.729 .def_140) (and (or .x.729 (not .def_142)) (and .def_244 (and .def_183 (and .def_165 (and .def_160 (and .def_158 (and .def_156 (and .def_154 (and .def_152 (and .def_150 (and .def_148 (and .def_144 (and .def_81 (and .def_47 (and .def_247 (and .loc.8 (and .def_109 (and .def_204 (and .def_205 .def_248))))))))))))))))))))) (and .def_244 (and .def_183 (and .def_165 (and .def_160 (and .def_158 (and .def_156 (and .def_154 (and .def_152 (and .def_150 (and .def_148 (and .def_144 (and .def_81 (and .def_47 (and .def_247 (and .loc.8 (and .def_204 (and .def_205 (and .def_248 (and hhv_ULTIMATE.start_L24_30_Bool .x.729)))))))))))))))))))) .def_348) (and .def_244 (and .def_49 (and .def_160 (and .def_158 (and .def_156 (and .def_154 (and .def_152 (and .def_150 (and .def_148 (and .def_144 (and .loc.11 (and .loc.10 (and .loc.9 (and .loc.7 (and .loc.6 (and .def_109 (and .def_107 (and .def_104 (and .def_101 (and .def_204 (and .def_205 (and .def_169 .def_248))))))))))))))))))))))) (and (and .def_244 (and .def_49 (and .def_160 (and .def_158 (and .def_156 (and .def_154 (and .def_152 (and .def_150 (and .def_148 (and .def_144 (and .loc.11 (and .loc.10 (and .loc.9 (and .loc.7 .def_373)))))))))))))) .def_389)) (and .def_393 .def_395)) (and (or hhv_ULTIMATE.start_L24_30_Bool .def_400) (and .def_244 (and .def_49 (and .def_160 (and .def_158 (and .def_156 (and .def_154 (and .def_152 (and .def_150 (and .def_148 (and .def_144 (and .def_81 (and .loc.11 (and .loc.10 (and .def_47 .def_373)))))))))))))))) (and (or hhv_ULTIMATE.start_L24_30_Bool .def_418) (and .def_244 (and .def_49 (and .def_160 (and .def_158 (and .def_156 (and .def_154 (and .def_152 (and .def_150 (and .def_148 (and .def_81 (and .loc.11 (and .loc.10 (and .def_247 (and .loc.7 (and .loc.5 (and .def_109 .def_426)))))))))))))))))) (and .def_446 .def_447)) (and (and (or .x.729 (and (not .def_450) (= .x.702 (store hhv_ULTIMATE.start_L24_3_Array_Int_Array_Int_Int .x.724 (store (select hhv_ULTIMATE.start_L24_3_Array_Int_Array_Int_Int .x.724) (+ .x.711 (* 4 .x.715)) (select (select hhv_ULTIMATE.start_L24_3_Array_Int_Array_Int_Int .x.719) (+ .x.722 (* 4 .x.715)))))))) (and .def_244 (and .def_49 (and .def_160 (and .def_158 (and .def_156 (and .def_154 (and .def_152 (and .def_150 (and .def_148 (and .def_144 (and .def_348 (and .def_81 (and .loc.10 (and .loc.7 (and .loc.6 (and .def_109 (and .def_107 (and .def_104 (and .def_101 (and .def_204 (and .def_205 (and .def_248 (and .def_393 .def_420)))))))))))))))))))))))) .def_488)) (and (or .x.729 .def_450) (and .def_488 (and .def_244 (and .def_49 (and .def_160 (and .def_158 (and .def_156 (and .def_154 (and .def_152 (and .def_150 (and .def_148 (and .def_144 (and .def_348 (and .def_81 (and .loc.10 (and .loc.7 (and .loc.6 .def_502)))))))))))))))))) (and .def_244 (and .def_49 (and .def_183 (and .def_160 (and .def_158 (and .def_156 (and .def_154 (and .def_152 (and .def_150 (and .def_148 (and .def_144 (and .loc.11 (and .loc.9 (and .def_247 (and .loc.7 (and .def_109 (and .def_446 (and .def_107 (and .def_104 (and .def_101 (and .def_204 (and .def_205 (and .def_248 (and .def_393 (and .def_395 (and .def_98 (and hhv_ULTIMATE.start_L24_30_Bool .def_447)))))))))))))))))))))))))))) (and .def_389 (and .def_244 (and .def_49 (and .def_183 (and .def_160 (and .def_158 (and .def_156 (and .def_154 (and .def_152 (and .def_150 (and .def_148 (and .def_144 (and .loc.11 (and .loc.9 (and .def_247 (and .loc.7 .def_502))))))))))))))))) (and (= hhv_ULTIMATE.start_L24_17_Int .x.716) (and (= hhv_ULTIMATE.start_L24_11_Int .x.710) (= hhv_ULTIMATE.start_L24_14_Int .x.713)))) (and (or hhv_ULTIMATE.start_L24_30_Bool (and .def_487 (and (and (and (and (= .x.702 (store .def_581 hbv_ULTIMATE.start_L20-4_25_Int (store (select .def_581 hbv_ULTIMATE.start_L20-4_25_Int) (+ hbv_ULTIMATE.start_L20-4_12_Int (* 4 hhv_ULTIMATE.start_L24_16_Int)) hhv_ULTIMATE.start_L24_14_Int))) (<= (- 2147483648) hhv_ULTIMATE.start_L24_14_Int)) (<= hhv_ULTIMATE.start_L24_11_Int 2147483647)) (<= hhv_ULTIMATE.start_L24_14_Int 2147483647)) (<= (- 2147483648) hhv_ULTIMATE.start_L24_11_Int)))) (and (or .x.729 .def_400) (and .def_244 (and .def_49 (and .def_183 (and .def_160 (and .def_158 (and .def_156 (and .def_154 (and .def_152 (and .def_150 (and .def_148 (and .def_144 (and .def_81 (and .loc.11 (and .def_247 (and .loc.7 (and .def_109 (and .def_426 .def_446)))))))))))))))))))) (and (= hhv_ULTIMATE.start_L24_9_Int .x.708) (and (= hhv_ULTIMATE.start_L24_5_Int .x.704) (= hhv_ULTIMATE.start_L24_7_Array_Int_Int .x.706)))) (and (or hhv_ULTIMATE.start_L24_30_Bool (and (and (= .x.704 0) (= .x.708 0)) (= hbv_ULTIMATE.start_L-1_1_Array_Int_Int (store hbv_ULTIMATE.start_L20-4_1_Array_Int_Int 0 0)))) (and (or .x.729 (and (and (and (and (and (and (and (and (and .def_418 (and (and (= .x.706 (store (store hhv_ULTIMATE.start_L24_7_Array_Int_Int .x.719 800000) .x.724 800000)) (= .x.722 0)) (= .x.711 0))) (= (select .def_645 .x.724) 0)) (not (<= .x.699 .x.724))) (not (= .x.724 0))) (= .x.700 (store .def_645 .x.724 1))) (= .x.717 150000)) (= (select hbv_ULTIMATE.start_L-1_1_Array_Int_Int .x.719) 0)) (not (<= .x.699 .x.719))) (not (= .x.719 0)))) (and .def_244 (and .def_49 (and .def_183 (and .def_156 (and .def_81 (and .loc.11 (and .def_47 (and .loc.6 (and .loc.5 (and .def_109 (and .def_104 .def_492))))))))))))))))))))))))))))))))))))))))))))))))))))))))))))))))) (state |.x.699| |.x.700| |.x.701| |.x.702| |.x.703| |.x.704| |.x.705| |.x.706| |.x.707| |.x.708| |.x.709| |.x.710| |.x.711| |.x.712| |.x.713| |.x.714| |.x.715| |.x.716| |.x.717| |.x.718| |.x.719| |.x.720| |.x.721| |.x.722| |.x.723| |.x.724| |.x.725| |.x.726| |.x.727| |.x.728| |.x.729| |.loc.9| |.loc.10| |.loc.11| |.loc.12| |.xtv.1|))))
(assert (forall ((|hhv_ULTIMATE.start_L24_0_Int| Int) (|hbv_ULTIMATE.start_L20-4_1_Array_Int_Int| (Array Int Int)) (|hhv_ULTIMATE.start_L24_2_Array_Int_Int| (Array Int Int)) (|hhv_ULTIMATE.start_L24_3_Array_Int_Array_Int_Int| (Array Int Int)) (|hhv_ULTIMATE.start_L24_4_Array_Int_Array_Int_Int| (Array Int Int)) (|hhv_ULTIMATE.start_L24_5_Int| Int) (|hhv_ULTIMATE.start_L24_6_Int| Int) (|hhv_ULTIMATE.start_L24_7_Array_Int_Int| (Array Int Int)) (|hhv_ULTIMATE.start_L24_8_Array_Int_Int| (Array Int Int)) (|hhv_ULTIMATE.start_L24_9_Int| Int) (|hhv_ULTIMATE.start_L24_10_Int| Int) (|hhv_ULTIMATE.start_L24_11_Int| Int) (|hbv_ULTIMATE.start_L20-4_12_Int| Int) (|hhv_ULTIMATE.start_L24_13_Int| Int) (|hhv_ULTIMATE.start_L24_14_Int| Int) (|hhv_ULTIMATE.start_L24_15_Int| Int) (|hhv_ULTIMATE.start_L24_16_Int| Int) (|hhv_ULTIMATE.start_L24_17_Int| Int) (|hhv_ULTIMATE.start_L24_18_Int| Int) (|hhv_ULTIMATE.start_L24_19_Int| Int) (|hbv_ULTIMATE.start_L20-4_20_Int| Int) (|hhv_ULTIMATE.start_L24_21_Int| Int) (|hhv_ULTIMATE.start_L24_22_Int| Int) (|hbv_ULTIMATE.start_L20-4_23_Int| Int) (|hhv_ULTIMATE.start_L24_24_Int| Int) (|hbv_ULTIMATE.start_L20-4_25_Int| Int) (|hbv_ULTIMATE.start_L20-4_26_Int| Int) (|hhv_ULTIMATE.start_L24_27_Int| Int) (|hhv_ULTIMATE.start_L24_28_Int| Int) (|hhv_ULTIMATE.start_L24_29_Int| Int) (|hhv_ULTIMATE.start_L24_30_Bool| Bool) (|.loc.5| Bool) (|.loc.6| Bool) (|.loc.7| Bool) (|.loc.8| Bool) (|hbv_ULTIMATE.start_L-1_1_Array_Int_Int| (Array Int Int)) (|.x.709| Int) (|.x.707| (Array Int Int)) (|.x.705| Int) (|.x.703| (Array Int Int)) (|.x.699| Int) (|.x.701| (Array Int Int)) (|.loc.9| Bool) (|.loc.10| Bool) (|.x.718| Int) (|.x.725| Int) (|.x.729| Bool) (|.x.700| (Array Int Int)) (|.x.712| Int) (|.x.723| Int) (|.x.726| Int) (|.x.727| Int) (|.x.720| Int) (|.x.722| Int) (|.x.702| (Array Int Int)) (|.x.719| Int) (|.x.717| Int) (|.x.711| Int) (|.x.724| Int) (|.x.721| Int) (|.loc.12| Bool) (|.loc.11| Bool) (|.x.715| Int) (|.x.714| Int) (|.x.728| Int) (|.x.716| Int) (|.x.710| Int) (|.x.713| Int) (|.x.708| Int) (|.x.704| Int) (|.x.706| (Array Int Int)) (|.xtv.1| (Array Int Int))) (=> (state |hhv_ULTIMATE.start_L24_0_Int| |hbv_ULTIMATE.start_L20-4_1_Array_Int_Int| |hhv_ULTIMATE.start_L24_2_Array_Int_Int| |hhv_ULTIMATE.start_L24_3_Array_Int_Array_Int_Int| |hhv_ULTIMATE.start_L24_4_Array_Int_Array_Int_Int| |hhv_ULTIMATE.start_L24_5_Int| |hhv_ULTIMATE.start_L24_6_Int| |hhv_ULTIMATE.start_L24_7_Array_Int_Int| |hhv_ULTIMATE.start_L24_8_Array_Int_Int| |hhv_ULTIMATE.start_L24_9_Int| |hhv_ULTIMATE.start_L24_10_Int| |hhv_ULTIMATE.start_L24_11_Int| |hbv_ULTIMATE.start_L20-4_12_Int| |hhv_ULTIMATE.start_L24_13_Int| |hhv_ULTIMATE.start_L24_14_Int| |hhv_ULTIMATE.start_L24_15_Int| |hhv_ULTIMATE.start_L24_16_Int| |hhv_ULTIMATE.start_L24_17_Int| |hhv_ULTIMATE.start_L24_18_Int| |hhv_ULTIMATE.start_L24_19_Int| |hbv_ULTIMATE.start_L20-4_20_Int| |hhv_ULTIMATE.start_L24_21_Int| |hhv_ULTIMATE.start_L24_22_Int| |hbv_ULTIMATE.start_L20-4_23_Int| |hhv_ULTIMATE.start_L24_24_Int| |hbv_ULTIMATE.start_L20-4_25_Int| |hbv_ULTIMATE.start_L20-4_26_Int| |hhv_ULTIMATE.start_L24_27_Int| |hhv_ULTIMATE.start_L24_28_Int| |hhv_ULTIMATE.start_L24_29_Int| |hhv_ULTIMATE.start_L24_30_Bool| |.loc.5| |.loc.6| |.loc.7| |.loc.8| |hbv_ULTIMATE.start_L-1_1_Array_Int_Int|) (not (and hhv_ULTIMATE.start_L24_30_Bool (and .loc.8 (and (not .loc.7) (and .loc.6 (not .loc.5)))))))))
(check-sat)
